c Generated map
c Size: 8 * 8, weights in range: 1 to 10, walls: True, with ratio 0.1
c dim 1 of 10
c
p sp 64 92
c graph contains 64 nodes and 92 arcs
c
a 1 2 9
a 2 1 9
a 2 10 8
a 10 2 8
a 2 3 7
a 3 2 7
a 3 4 1
a 4 3 1
a 4 12 6
a 12 4 6
a 4 5 6
a 5 4 6
a 5 13 10
a 13 5 10
a 5 6 4
a 6 5 4
a 6 14 2
a 14 6 2
a 6 7 3
a 7 6 3
a 7 15 8
a 15 7 8
a 10 18 7
a 18 10 7
a 12 20 1
a 20 12 1
a 12 13 6
a 13 12 6
a 13 21 5
a 21 13 5
a 13 14 6
a 14 13 6
a 14 22 3
a 22 14 3
a 14 15 5
a 15 14 5
a 15 16 10
a 16 15 10
a 16 24 3
a 24 16 3
a 17 25 10
a 25 17 10
a 17 18 3
a 18 17 3
a 18 19 10
a 19 18 10
a 19 27 3
a 27 19 3
a 19 20 4
a 20 19 4
a 20 28 1
a 28 20 1
a 20 21 7
a 21 20 7
a 21 29 4
a 29 21 4
a 21 22 9
a 22 21 9
a 22 30 5
a 30 22 5
a 24 32 5
a 32 24 5
a 25 33 1
a 33 25 1
a 27 35 1
a 35 27 1
a 27 28 6
a 28 27 6
a 28 36 7
a 36 28 7
a 28 29 10
a 29 28 10
a 29 37 8
a 37 29 8
a 29 30 4
a 30 29 4
a 30 38 1
a 38 30 1
a 30 31 8
a 31 30 8
a 31 39 1
a 39 31 1
a 31 32 10
a 32 31 10
a 32 40 4
a 40 32 4
a 33 41 9
a 41 33 9
a 33 34 9
a 34 33 9
a 34 42 5
a 42 34 5
a 34 35 1
a 35 34 1
a 35 43 3
a 43 35 3
a 35 36 4
a 36 35 4
a 36 44 6
a 44 36 6
a 36 37 6
a 37 36 6
a 37 45 7
a 45 37 7
a 37 38 5
a 38 37 5
a 38 46 1
a 46 38 1
a 38 39 5
a 39 38 5
a 39 47 10
a 47 39 10
a 39 40 8
a 40 39 8
a 40 48 2
a 48 40 2
a 41 49 7
a 49 41 7
a 41 42 9
a 42 41 9
a 42 50 5
a 50 42 5
a 42 43 6
a 43 42 6
a 43 51 10
a 51 43 10
a 43 44 8
a 44 43 8
a 44 52 1
a 52 44 1
a 44 45 1
a 45 44 1
a 45 53 6
a 53 45 6
a 45 46 2
a 46 45 2
a 46 54 2
a 54 46 2
a 46 47 2
a 47 46 2
a 47 55 4
a 55 47 4
a 47 48 1
a 48 47 1
a 48 56 3
a 56 48 3
a 49 57 9
a 57 49 9
a 49 50 3
a 50 49 3
a 50 58 8
a 58 50 8
a 50 51 4
a 51 50 4
a 51 59 4
a 59 51 4
a 51 52 2
a 52 51 2
a 52 60 1
a 60 52 1
a 52 53 1
a 53 52 1
a 53 54 4
a 54 53 4
a 54 62 1
a 62 54 1
a 54 55 5
a 55 54 5
a 55 63 3
a 63 55 3
a 55 56 8
a 56 55 8
a 56 64 6
a 64 56 6
a 57 58 9
a 58 57 9
a 58 59 7
a 59 58 7
a 59 60 2
a 60 59 2
a 62 63 7
a 63 62 7
a 63 64 8
a 64 63 8
